
(set-logic HORN)
(declare-datatypes ((Bool_228 0)) (((false_228) (true_228))))
(declare-fun diseqBool_104 (Bool_228 Bool_228) Bool)
(declare-fun isfalse_104 (Bool_228) Bool)
(declare-fun istrue_104 (Bool_228) Bool)
(assert (isfalse_104 false_228))
(assert (istrue_104 true_228))
(assert (diseqBool_104 false_228 true_228))
(assert (diseqBool_104 true_228 false_228))
(declare-fun and_228 (Bool_228 Bool_228 Bool_228) Bool)
(declare-fun or_232 (Bool_228 Bool_228 Bool_228) Bool)
(declare-fun hence_228 (Bool_228 Bool_228 Bool_228) Bool)
(declare-fun not_231 (Bool_228 Bool_228) Bool)
(assert (and_228 false_228 false_228 false_228))
(assert (and_228 false_228 true_228 false_228))
(assert (and_228 false_228 false_228 true_228))
(assert (and_228 true_228 true_228 true_228))
(assert (or_232 false_228 false_228 false_228))
(assert (or_232 true_228 true_228 false_228))
(assert (or_232 true_228 false_228 true_228))
(assert (or_232 true_228 true_228 true_228))
(assert (hence_228 true_228 false_228 false_228))
(assert (hence_228 false_228 true_228 false_228))
(assert (hence_228 true_228 false_228 true_228))
(assert (hence_228 true_228 true_228 true_228))
(assert (not_231 true_228 false_228))
(assert (not_231 false_228 true_228))
(declare-datatypes ((A_43 0)) (((X_39937) (Y_1474))))
(declare-fun diseqA_11 (A_43 A_43) Bool)
(declare-fun isX_14 (A_43) Bool)
(declare-fun isY_11 (A_43) Bool)
(assert (isX_14 X_39937))
(assert (isY_11 Y_1474))
(assert (diseqA_11 X_39937 Y_1474))
(assert (diseqA_11 Y_1474 X_39937))
(declare-datatypes ((R_281 0)) (((Nil_177) (Eps_22) (Atom_11 (projAtom_22 A_43)) (Plus_88 (projPlus_44 R_281) (projPlus_45 R_281)) (Seq_22 (projSeq_44 R_281) (projSeq_45 R_281)) (Star_11 (projStar_22 R_281)))))
(declare-fun diseqR_11 (R_281 R_281) Bool)
(declare-fun projAtom_23 (A_43 R_281) Bool)
(declare-fun projPlus_46 (R_281 R_281) Bool)
(declare-fun projPlus_47 (R_281 R_281) Bool)
(declare-fun projSeq_46 (R_281 R_281) Bool)
(declare-fun projSeq_47 (R_281 R_281) Bool)
(declare-fun projStar_23 (R_281 R_281) Bool)
(declare-fun isNil_177 (R_281) Bool)
(declare-fun isEps_11 (R_281) Bool)
(declare-fun isAtom_11 (R_281) Bool)
(declare-fun isPlus_11 (R_281) Bool)
(declare-fun isSeq_11 (R_281) Bool)
(declare-fun isStar_11 (R_281) Bool)
(assert (forall ((x_42028 A_43))
	(projAtom_23 x_42028 (Atom_11 x_42028))))
(assert (forall ((x_42030 R_281) (x_42031 R_281))
	(projPlus_46 x_42030 (Plus_88 x_42030 x_42031))))
(assert (forall ((x_42030 R_281) (x_42031 R_281))
	(projPlus_47 x_42031 (Plus_88 x_42030 x_42031))))
(assert (forall ((x_42033 R_281) (x_42034 R_281))
	(projSeq_46 x_42033 (Seq_22 x_42033 x_42034))))
(assert (forall ((x_42033 R_281) (x_42034 R_281))
	(projSeq_47 x_42034 (Seq_22 x_42033 x_42034))))
(assert (forall ((x_42036 R_281))
	(projStar_23 x_42036 (Star_11 x_42036))))
(assert (isNil_177 Nil_177))
(assert (isEps_11 Eps_22))
(assert (forall ((x_42038 A_43))
	(isAtom_11 (Atom_11 x_42038))))
(assert (forall ((x_42039 R_281) (x_42040 R_281))
	(isPlus_11 (Plus_88 x_42039 x_42040))))
(assert (forall ((x_42041 R_281) (x_42042 R_281))
	(isSeq_11 (Seq_22 x_42041 x_42042))))
(assert (forall ((x_42043 R_281))
	(isStar_11 (Star_11 x_42043))))
(assert (diseqR_11 Nil_177 Eps_22))
(assert (forall ((x_42044 A_43))
	(diseqR_11 Nil_177 (Atom_11 x_42044))))
(assert (forall ((x_42045 R_281) (x_42046 R_281))
	(diseqR_11 Nil_177 (Plus_88 x_42045 x_42046))))
(assert (forall ((x_42047 R_281) (x_42048 R_281))
	(diseqR_11 Nil_177 (Seq_22 x_42047 x_42048))))
(assert (forall ((x_42049 R_281))
	(diseqR_11 Nil_177 (Star_11 x_42049))))
(assert (diseqR_11 Eps_22 Nil_177))
(assert (forall ((x_42050 A_43))
	(diseqR_11 (Atom_11 x_42050) Nil_177)))
(assert (forall ((x_42051 R_281) (x_42052 R_281))
	(diseqR_11 (Plus_88 x_42051 x_42052) Nil_177)))
(assert (forall ((x_42053 R_281) (x_42054 R_281))
	(diseqR_11 (Seq_22 x_42053 x_42054) Nil_177)))
(assert (forall ((x_42055 R_281))
	(diseqR_11 (Star_11 x_42055) Nil_177)))
(assert (forall ((x_42056 A_43))
	(diseqR_11 Eps_22 (Atom_11 x_42056))))
(assert (forall ((x_42057 R_281) (x_42058 R_281))
	(diseqR_11 Eps_22 (Plus_88 x_42057 x_42058))))
(assert (forall ((x_42059 R_281) (x_42060 R_281))
	(diseqR_11 Eps_22 (Seq_22 x_42059 x_42060))))
(assert (forall ((x_42061 R_281))
	(diseqR_11 Eps_22 (Star_11 x_42061))))
(assert (forall ((x_42062 A_43))
	(diseqR_11 (Atom_11 x_42062) Eps_22)))
(assert (forall ((x_42063 R_281) (x_42064 R_281))
	(diseqR_11 (Plus_88 x_42063 x_42064) Eps_22)))
(assert (forall ((x_42065 R_281) (x_42066 R_281))
	(diseqR_11 (Seq_22 x_42065 x_42066) Eps_22)))
(assert (forall ((x_42067 R_281))
	(diseqR_11 (Star_11 x_42067) Eps_22)))
(assert (forall ((x_42068 A_43) (x_42069 R_281) (x_42070 R_281))
	(diseqR_11 (Atom_11 x_42068) (Plus_88 x_42069 x_42070))))
(assert (forall ((x_42071 A_43) (x_42072 R_281) (x_42073 R_281))
	(diseqR_11 (Atom_11 x_42071) (Seq_22 x_42072 x_42073))))
(assert (forall ((x_42074 A_43) (x_42075 R_281))
	(diseqR_11 (Atom_11 x_42074) (Star_11 x_42075))))
(assert (forall ((x_42076 R_281) (x_42077 R_281) (x_42078 A_43))
	(diseqR_11 (Plus_88 x_42076 x_42077) (Atom_11 x_42078))))
(assert (forall ((x_42079 R_281) (x_42080 R_281) (x_42081 A_43))
	(diseqR_11 (Seq_22 x_42079 x_42080) (Atom_11 x_42081))))
(assert (forall ((x_42082 R_281) (x_42083 A_43))
	(diseqR_11 (Star_11 x_42082) (Atom_11 x_42083))))
(assert (forall ((x_42084 R_281) (x_42085 R_281) (x_42086 R_281) (x_42087 R_281))
	(diseqR_11 (Plus_88 x_42084 x_42085) (Seq_22 x_42086 x_42087))))
(assert (forall ((x_42088 R_281) (x_42089 R_281) (x_42090 R_281))
	(diseqR_11 (Plus_88 x_42088 x_42089) (Star_11 x_42090))))
(assert (forall ((x_42091 R_281) (x_42092 R_281) (x_42093 R_281) (x_42094 R_281))
	(diseqR_11 (Seq_22 x_42091 x_42092) (Plus_88 x_42093 x_42094))))
(assert (forall ((x_42095 R_281) (x_42096 R_281) (x_42097 R_281))
	(diseqR_11 (Star_11 x_42095) (Plus_88 x_42096 x_42097))))
(assert (forall ((x_42098 R_281) (x_42099 R_281) (x_42100 R_281))
	(diseqR_11 (Seq_22 x_42098 x_42099) (Star_11 x_42100))))
(assert (forall ((x_42101 R_281) (x_42102 R_281) (x_42103 R_281))
	(diseqR_11 (Star_11 x_42101) (Seq_22 x_42102 x_42103))))
(assert (forall ((x_42104 A_43) (x_42105 A_43))
	(=> (diseqA_11 x_42104 x_42105) (diseqR_11 (Atom_11 x_42104) (Atom_11 x_42105)))))
(assert (forall ((x_42106 R_281) (x_42107 R_281) (x_42108 R_281) (x_42109 R_281))
	(=> (diseqR_11 x_42106 x_42108) (diseqR_11 (Plus_88 x_42106 x_42107) (Plus_88 x_42108 x_42109)))))
(assert (forall ((x_42106 R_281) (x_42107 R_281) (x_42108 R_281) (x_42109 R_281))
	(=> (diseqR_11 x_42107 x_42109) (diseqR_11 (Plus_88 x_42106 x_42107) (Plus_88 x_42108 x_42109)))))
(assert (forall ((x_42110 R_281) (x_42111 R_281) (x_42112 R_281) (x_42113 R_281))
	(=> (diseqR_11 x_42110 x_42112) (diseqR_11 (Seq_22 x_42110 x_42111) (Seq_22 x_42112 x_42113)))))
(assert (forall ((x_42110 R_281) (x_42111 R_281) (x_42112 R_281) (x_42113 R_281))
	(=> (diseqR_11 x_42111 x_42113) (diseqR_11 (Seq_22 x_42110 x_42111) (Seq_22 x_42112 x_42113)))))
(assert (forall ((x_42114 R_281) (x_42115 R_281))
	(=> (diseqR_11 x_42114 x_42115) (diseqR_11 (Star_11 x_42114) (Star_11 x_42115)))))
(declare-datatypes ((list_156 0)) (((nil_178) (cons_156 (head_312 A_43) (tail_312 list_156)))))
(declare-fun diseqlist_156 (list_156 list_156) Bool)
(declare-fun head_313 (A_43 list_156) Bool)
(declare-fun tail_313 (list_156 list_156) Bool)
(declare-fun isnil_178 (list_156) Bool)
(declare-fun iscons_156 (list_156) Bool)
(assert (forall ((x_42117 A_43) (x_42118 list_156))
	(head_313 x_42117 (cons_156 x_42117 x_42118))))
(assert (forall ((x_42117 A_43) (x_42118 list_156))
	(tail_313 x_42118 (cons_156 x_42117 x_42118))))
(assert (isnil_178 nil_178))
(assert (forall ((x_42120 A_43) (x_42121 list_156))
	(iscons_156 (cons_156 x_42120 x_42121))))
(assert (forall ((x_42122 A_43) (x_42123 list_156))
	(diseqlist_156 nil_178 (cons_156 x_42122 x_42123))))
(assert (forall ((x_42124 A_43) (x_42125 list_156))
	(diseqlist_156 (cons_156 x_42124 x_42125) nil_178)))
(assert (forall ((x_42126 A_43) (x_42127 list_156) (x_42128 A_43) (x_42129 list_156))
	(=> (diseqA_11 x_42126 x_42128) (diseqlist_156 (cons_156 x_42126 x_42127) (cons_156 x_42128 x_42129)))))
(assert (forall ((x_42126 A_43) (x_42127 list_156) (x_42128 A_43) (x_42129 list_156))
	(=> (diseqlist_156 x_42127 x_42129) (diseqlist_156 (cons_156 x_42126 x_42127) (cons_156 x_42128 x_42129)))))
(declare-fun seq_23 (R_281 R_281 R_281) Bool)
(assert (forall ((y_1475 R_281))
	(seq_23 Nil_177 Nil_177 y_1475)))
(assert (forall ((x_39939 R_281) (x_40181 A_43))
	(seq_23 Nil_177 (Atom_11 x_40181) Nil_177)))
(assert (forall ((x_39939 R_281))
	(seq_23 Nil_177 Eps_22 Nil_177)))
(assert (forall ((x_39939 R_281) (x_40182 R_281) (x_40183 R_281))
	(seq_23 Nil_177 (Plus_88 x_40182 x_40183) Nil_177)))
(assert (forall ((x_39939 R_281) (x_40184 R_281) (x_40185 R_281))
	(seq_23 Nil_177 (Seq_22 x_40184 x_40185) Nil_177)))
(assert (forall ((x_39939 R_281) (x_40186 R_281))
	(seq_23 Nil_177 (Star_11 x_40186) Nil_177)))
(assert (forall ((x_39940 R_281) (x_39995 A_43) (x_39939 R_281))
	(seq_23 (Atom_11 x_39995) Eps_22 (Atom_11 x_39995))))
(assert (forall ((x_39940 R_281) (x_39939 R_281))
	(seq_23 Eps_22 Eps_22 Eps_22)))
(assert (forall ((x_39940 R_281) (x_39996 R_281) (x_39997 R_281) (x_39939 R_281))
	(seq_23 (Plus_88 x_39996 x_39997) Eps_22 (Plus_88 x_39996 x_39997))))
(assert (forall ((x_39940 R_281) (x_39998 R_281) (x_39999 R_281) (x_39939 R_281))
	(seq_23 (Seq_22 x_39998 x_39999) Eps_22 (Seq_22 x_39998 x_39999))))
(assert (forall ((x_39940 R_281) (x_40000 R_281) (x_39939 R_281))
	(seq_23 (Star_11 x_40000) Eps_22 (Star_11 x_40000))))
(assert (forall ((x_39941 R_281) (x_39959 A_43) (x_39940 R_281) (x_39939 R_281))
	(seq_23 (Atom_11 x_39959) (Atom_11 x_39959) Eps_22)))
(assert (forall ((x_39941 R_281) (x_39960 R_281) (x_39961 R_281) (x_39940 R_281) (x_39939 R_281))
	(seq_23 (Plus_88 x_39960 x_39961) (Plus_88 x_39960 x_39961) Eps_22)))
(assert (forall ((x_39941 R_281) (x_39962 R_281) (x_39963 R_281) (x_39940 R_281) (x_39939 R_281))
	(seq_23 (Seq_22 x_39962 x_39963) (Seq_22 x_39962 x_39963) Eps_22)))
(assert (forall ((x_39941 R_281) (x_39964 R_281) (x_39940 R_281) (x_39939 R_281))
	(seq_23 (Star_11 x_39964) (Star_11 x_39964) Eps_22)))
(assert (forall ((x_39942 R_281) (x_39953 A_43) (x_39941 R_281) (x_39965 A_43) (x_39940 R_281) (x_39939 R_281))
	(seq_23 (Seq_22 (Atom_11 x_39965) (Atom_11 x_39953)) (Atom_11 x_39965) (Atom_11 x_39953))))
(assert (forall ((x_39942 R_281) (x_39953 A_43) (x_39941 R_281) (x_39966 R_281) (x_39967 R_281) (x_39940 R_281) (x_39939 R_281))
	(seq_23 (Seq_22 (Plus_88 x_39966 x_39967) (Atom_11 x_39953)) (Plus_88 x_39966 x_39967) (Atom_11 x_39953))))
(assert (forall ((x_39942 R_281) (x_39953 A_43) (x_39941 R_281) (x_39968 R_281) (x_39969 R_281) (x_39940 R_281) (x_39939 R_281))
	(seq_23 (Seq_22 (Seq_22 x_39968 x_39969) (Atom_11 x_39953)) (Seq_22 x_39968 x_39969) (Atom_11 x_39953))))
(assert (forall ((x_39942 R_281) (x_39953 A_43) (x_39941 R_281) (x_39970 R_281) (x_39940 R_281) (x_39939 R_281))
	(seq_23 (Seq_22 (Star_11 x_39970) (Atom_11 x_39953)) (Star_11 x_39970) (Atom_11 x_39953))))
(assert (forall ((x_39942 R_281) (x_39954 R_281) (x_39955 R_281) (x_39941 R_281) (x_39977 A_43) (x_39940 R_281) (x_39939 R_281))
	(seq_23 (Seq_22 (Atom_11 x_39977) (Plus_88 x_39954 x_39955)) (Atom_11 x_39977) (Plus_88 x_39954 x_39955))))
(assert (forall ((x_39942 R_281) (x_39954 R_281) (x_39955 R_281) (x_39941 R_281) (x_39978 R_281) (x_39979 R_281) (x_39940 R_281) (x_39939 R_281))
	(seq_23 (Seq_22 (Plus_88 x_39978 x_39979) (Plus_88 x_39954 x_39955)) (Plus_88 x_39978 x_39979) (Plus_88 x_39954 x_39955))))
(assert (forall ((x_39942 R_281) (x_39954 R_281) (x_39955 R_281) (x_39941 R_281) (x_39980 R_281) (x_39981 R_281) (x_39940 R_281) (x_39939 R_281))
	(seq_23 (Seq_22 (Seq_22 x_39980 x_39981) (Plus_88 x_39954 x_39955)) (Seq_22 x_39980 x_39981) (Plus_88 x_39954 x_39955))))
(assert (forall ((x_39942 R_281) (x_39954 R_281) (x_39955 R_281) (x_39941 R_281) (x_39982 R_281) (x_39940 R_281) (x_39939 R_281))
	(seq_23 (Seq_22 (Star_11 x_39982) (Plus_88 x_39954 x_39955)) (Star_11 x_39982) (Plus_88 x_39954 x_39955))))
(assert (forall ((x_39942 R_281) (x_39956 R_281) (x_39957 R_281) (x_39941 R_281) (x_39983 A_43) (x_39940 R_281) (x_39939 R_281))
	(seq_23 (Seq_22 (Atom_11 x_39983) (Seq_22 x_39956 x_39957)) (Atom_11 x_39983) (Seq_22 x_39956 x_39957))))
(assert (forall ((x_39942 R_281) (x_39956 R_281) (x_39957 R_281) (x_39941 R_281) (x_39984 R_281) (x_39985 R_281) (x_39940 R_281) (x_39939 R_281))
	(seq_23 (Seq_22 (Plus_88 x_39984 x_39985) (Seq_22 x_39956 x_39957)) (Plus_88 x_39984 x_39985) (Seq_22 x_39956 x_39957))))
(assert (forall ((x_39942 R_281) (x_39956 R_281) (x_39957 R_281) (x_39941 R_281) (x_39986 R_281) (x_39987 R_281) (x_39940 R_281) (x_39939 R_281))
	(seq_23 (Seq_22 (Seq_22 x_39986 x_39987) (Seq_22 x_39956 x_39957)) (Seq_22 x_39986 x_39987) (Seq_22 x_39956 x_39957))))
(assert (forall ((x_39942 R_281) (x_39956 R_281) (x_39957 R_281) (x_39941 R_281) (x_39988 R_281) (x_39940 R_281) (x_39939 R_281))
	(seq_23 (Seq_22 (Star_11 x_39988) (Seq_22 x_39956 x_39957)) (Star_11 x_39988) (Seq_22 x_39956 x_39957))))
(assert (forall ((x_39942 R_281) (x_39958 R_281) (x_39941 R_281) (x_39989 A_43) (x_39940 R_281) (x_39939 R_281))
	(seq_23 (Seq_22 (Atom_11 x_39989) (Star_11 x_39958)) (Atom_11 x_39989) (Star_11 x_39958))))
(assert (forall ((x_39942 R_281) (x_39958 R_281) (x_39941 R_281) (x_39990 R_281) (x_39991 R_281) (x_39940 R_281) (x_39939 R_281))
	(seq_23 (Seq_22 (Plus_88 x_39990 x_39991) (Star_11 x_39958)) (Plus_88 x_39990 x_39991) (Star_11 x_39958))))
(assert (forall ((x_39942 R_281) (x_39958 R_281) (x_39941 R_281) (x_39992 R_281) (x_39993 R_281) (x_39940 R_281) (x_39939 R_281))
	(seq_23 (Seq_22 (Seq_22 x_39992 x_39993) (Star_11 x_39958)) (Seq_22 x_39992 x_39993) (Star_11 x_39958))))
(assert (forall ((x_39942 R_281) (x_39958 R_281) (x_39941 R_281) (x_39994 R_281) (x_39940 R_281) (x_39939 R_281))
	(seq_23 (Seq_22 (Star_11 x_39994) (Star_11 x_39958)) (Star_11 x_39994) (Star_11 x_39958))))
(declare-fun plus_89 (R_281 R_281 R_281) Bool)
(assert (forall ((x_41941 R_281))
	(plus_89 x_41941 Nil_177 x_41941)))
(assert (forall ((x_39944 R_281) (x_41123 A_43))
	(plus_89 (Atom_11 x_41123) (Atom_11 x_41123) Nil_177)))
(assert (forall ((x_39944 R_281))
	(plus_89 Eps_22 Eps_22 Nil_177)))
(assert (forall ((x_39944 R_281) (x_41124 R_281) (x_41125 R_281))
	(plus_89 (Plus_88 x_41124 x_41125) (Plus_88 x_41124 x_41125) Nil_177)))
(assert (forall ((x_39944 R_281) (x_41126 R_281) (x_41127 R_281))
	(plus_89 (Seq_22 x_41126 x_41127) (Seq_22 x_41126 x_41127) Nil_177)))
(assert (forall ((x_39944 R_281) (x_41128 R_281))
	(plus_89 (Star_11 x_41128) (Star_11 x_41128) Nil_177)))
(assert (forall ((x_39945 R_281) (x_41117 A_43) (x_39944 R_281) (x_41129 A_43))
	(plus_89 (Plus_88 (Atom_11 x_41129) (Atom_11 x_41117)) (Atom_11 x_41129) (Atom_11 x_41117))))
(assert (forall ((x_39945 R_281) (x_41117 A_43) (x_39944 R_281))
	(plus_89 (Plus_88 Eps_22 (Atom_11 x_41117)) Eps_22 (Atom_11 x_41117))))
(assert (forall ((x_39945 R_281) (x_41117 A_43) (x_39944 R_281) (x_41130 R_281) (x_41131 R_281))
	(plus_89 (Plus_88 (Plus_88 x_41130 x_41131) (Atom_11 x_41117)) (Plus_88 x_41130 x_41131) (Atom_11 x_41117))))
(assert (forall ((x_39945 R_281) (x_41117 A_43) (x_39944 R_281) (x_41132 R_281) (x_41133 R_281))
	(plus_89 (Plus_88 (Seq_22 x_41132 x_41133) (Atom_11 x_41117)) (Seq_22 x_41132 x_41133) (Atom_11 x_41117))))
(assert (forall ((x_39945 R_281) (x_41117 A_43) (x_39944 R_281) (x_41134 R_281))
	(plus_89 (Plus_88 (Star_11 x_41134) (Atom_11 x_41117)) (Star_11 x_41134) (Atom_11 x_41117))))
(assert (forall ((x_39945 R_281) (x_39944 R_281) (x_41135 A_43))
	(plus_89 (Plus_88 (Atom_11 x_41135) Eps_22) (Atom_11 x_41135) Eps_22)))
(assert (forall ((x_39945 R_281) (x_39944 R_281))
	(plus_89 (Plus_88 Eps_22 Eps_22) Eps_22 Eps_22)))
(assert (forall ((x_39945 R_281) (x_39944 R_281) (x_41136 R_281) (x_41137 R_281))
	(plus_89 (Plus_88 (Plus_88 x_41136 x_41137) Eps_22) (Plus_88 x_41136 x_41137) Eps_22)))
(assert (forall ((x_39945 R_281) (x_39944 R_281) (x_41138 R_281) (x_41139 R_281))
	(plus_89 (Plus_88 (Seq_22 x_41138 x_41139) Eps_22) (Seq_22 x_41138 x_41139) Eps_22)))
(assert (forall ((x_39945 R_281) (x_39944 R_281) (x_41140 R_281))
	(plus_89 (Plus_88 (Star_11 x_41140) Eps_22) (Star_11 x_41140) Eps_22)))
(assert (forall ((x_39945 R_281) (x_41118 R_281) (x_41119 R_281) (x_39944 R_281) (x_41141 A_43))
	(plus_89 (Plus_88 (Atom_11 x_41141) (Plus_88 x_41118 x_41119)) (Atom_11 x_41141) (Plus_88 x_41118 x_41119))))
(assert (forall ((x_39945 R_281) (x_41118 R_281) (x_41119 R_281) (x_39944 R_281))
	(plus_89 (Plus_88 Eps_22 (Plus_88 x_41118 x_41119)) Eps_22 (Plus_88 x_41118 x_41119))))
(assert (forall ((x_39945 R_281) (x_41118 R_281) (x_41119 R_281) (x_39944 R_281) (x_41142 R_281) (x_41143 R_281))
	(plus_89 (Plus_88 (Plus_88 x_41142 x_41143) (Plus_88 x_41118 x_41119)) (Plus_88 x_41142 x_41143) (Plus_88 x_41118 x_41119))))
(assert (forall ((x_39945 R_281) (x_41118 R_281) (x_41119 R_281) (x_39944 R_281) (x_41144 R_281) (x_41145 R_281))
	(plus_89 (Plus_88 (Seq_22 x_41144 x_41145) (Plus_88 x_41118 x_41119)) (Seq_22 x_41144 x_41145) (Plus_88 x_41118 x_41119))))
(assert (forall ((x_39945 R_281) (x_41118 R_281) (x_41119 R_281) (x_39944 R_281) (x_41146 R_281))
	(plus_89 (Plus_88 (Star_11 x_41146) (Plus_88 x_41118 x_41119)) (Star_11 x_41146) (Plus_88 x_41118 x_41119))))
(assert (forall ((x_39945 R_281) (x_41120 R_281) (x_41121 R_281) (x_39944 R_281) (x_41147 A_43))
	(plus_89 (Plus_88 (Atom_11 x_41147) (Seq_22 x_41120 x_41121)) (Atom_11 x_41147) (Seq_22 x_41120 x_41121))))
(assert (forall ((x_39945 R_281) (x_41120 R_281) (x_41121 R_281) (x_39944 R_281))
	(plus_89 (Plus_88 Eps_22 (Seq_22 x_41120 x_41121)) Eps_22 (Seq_22 x_41120 x_41121))))
(assert (forall ((x_39945 R_281) (x_41120 R_281) (x_41121 R_281) (x_39944 R_281) (x_41148 R_281) (x_41149 R_281))
	(plus_89 (Plus_88 (Plus_88 x_41148 x_41149) (Seq_22 x_41120 x_41121)) (Plus_88 x_41148 x_41149) (Seq_22 x_41120 x_41121))))
(assert (forall ((x_39945 R_281) (x_41120 R_281) (x_41121 R_281) (x_39944 R_281) (x_41150 R_281) (x_41151 R_281))
	(plus_89 (Plus_88 (Seq_22 x_41150 x_41151) (Seq_22 x_41120 x_41121)) (Seq_22 x_41150 x_41151) (Seq_22 x_41120 x_41121))))
(assert (forall ((x_39945 R_281) (x_41120 R_281) (x_41121 R_281) (x_39944 R_281) (x_41152 R_281))
	(plus_89 (Plus_88 (Star_11 x_41152) (Seq_22 x_41120 x_41121)) (Star_11 x_41152) (Seq_22 x_41120 x_41121))))
(assert (forall ((x_39945 R_281) (x_41122 R_281) (x_39944 R_281) (x_41153 A_43))
	(plus_89 (Plus_88 (Atom_11 x_41153) (Star_11 x_41122)) (Atom_11 x_41153) (Star_11 x_41122))))
(assert (forall ((x_39945 R_281) (x_41122 R_281) (x_39944 R_281))
	(plus_89 (Plus_88 Eps_22 (Star_11 x_41122)) Eps_22 (Star_11 x_41122))))
(assert (forall ((x_39945 R_281) (x_41122 R_281) (x_39944 R_281) (x_41154 R_281) (x_41155 R_281))
	(plus_89 (Plus_88 (Plus_88 x_41154 x_41155) (Star_11 x_41122)) (Plus_88 x_41154 x_41155) (Star_11 x_41122))))
(assert (forall ((x_39945 R_281) (x_41122 R_281) (x_39944 R_281) (x_41156 R_281) (x_41157 R_281))
	(plus_89 (Plus_88 (Seq_22 x_41156 x_41157) (Star_11 x_41122)) (Seq_22 x_41156 x_41157) (Star_11 x_41122))))
(assert (forall ((x_39945 R_281) (x_41122 R_281) (x_39944 R_281) (x_41158 R_281))
	(plus_89 (Plus_88 (Star_11 x_41158) (Star_11 x_41122)) (Star_11 x_41158) (Star_11 x_41122))))
(declare-fun eqA_11 (Bool_228 A_43 A_43) Bool)
(assert (eqA_11 true_228 Y_1474 Y_1474))
(assert (eqA_11 false_228 Y_1474 X_39937))
(assert (eqA_11 false_228 X_39937 Y_1474))
(assert (eqA_11 true_228 X_39937 X_39937))
(declare-fun eps_23 (Bool_228 R_281) Bool)
(assert (forall ((y_1478 R_281))
	(eps_23 true_228 (Star_11 y_1478))))
(assert (forall ((x_41977 Bool_228) (x_41978 Bool_228) (x_41979 Bool_228) (r_282 R_281) (q_89 R_281))
	(=> (and (eps_23 x_41978 r_282) (eps_23 x_41979 q_89) (and_228 x_41977 x_41978 x_41979)) (eps_23 x_41977 (Seq_22 r_282 q_89)))))
(assert (forall ((x_41980 Bool_228) (x_41981 Bool_228) (x_41982 Bool_228) (p_254 R_281) (q_90 R_281))
	(=> (and (eps_23 x_41981 p_254) (eps_23 x_41982 q_90) (or_232 x_41980 x_41981 x_41982)) (eps_23 x_41980 (Plus_88 p_254 q_90)))))
(assert (eps_23 true_228 Eps_22))
(assert (forall ((x_39948 R_281) (x_41159 A_43))
	(eps_23 false_228 (Atom_11 x_41159))))
(assert (forall ((x_39948 R_281))
	(eps_23 false_228 Nil_177)))
(declare-fun epsR_11 (R_281 R_281) Bool)
(assert (forall ((x_39949 R_281))
	(=> (eps_23 true_228 x_39949) (epsR_11 Eps_22 x_39949))))
(assert (forall ((x_39949 R_281))
	(=> (eps_23 false_228 x_39949) (epsR_11 Nil_177 x_39949))))
(declare-fun step_11 (R_281 R_281 A_43) Bool)
(assert (forall ((x_41990 R_281) (x_41991 R_281) (p_255 R_281) (y_1479 A_43))
	(=> (and (step_11 x_41991 p_255 y_1479) (seq_23 x_41990 x_41991 (Star_11 p_255))) (step_11 x_41990 (Star_11 p_255) y_1479))))
(assert (forall ((x_41993 R_281) (x_41994 R_281) (x_41995 R_281) (x_41996 R_281) (x_41997 R_281) (x_41998 R_281) (r_283 R_281) (q_91 R_281) (y_1479 A_43))
	(=> (and (step_11 x_41994 r_283 y_1479) (seq_23 x_41995 x_41994 q_91) (epsR_11 x_41996 r_283) (step_11 x_41997 q_91 y_1479) (seq_23 x_41998 x_41996 x_41997) (plus_89 x_41993 x_41995 x_41998)) (step_11 x_41993 (Seq_22 r_283 q_91) y_1479))))
(assert (forall ((x_42000 R_281) (x_42001 R_281) (x_42002 R_281) (p_256 R_281) (q_92 R_281) (y_1479 A_43))
	(=> (and (step_11 x_42001 p_256 y_1479) (step_11 x_42002 q_92 y_1479) (plus_89 x_42000 x_42001 x_42002)) (step_11 x_42000 (Plus_88 p_256 q_92) y_1479))))
(assert (forall ((a_44 A_43) (y_1479 A_43))
	(=> (eqA_11 true_228 a_44 y_1479) (step_11 Eps_22 (Atom_11 a_44) y_1479))))
(assert (forall ((a_44 A_43) (y_1479 A_43))
	(=> (eqA_11 false_228 a_44 y_1479) (step_11 Nil_177 (Atom_11 a_44) y_1479))))
(assert (forall ((x_39951 R_281) (y_1479 A_43))
	(step_11 Nil_177 Eps_22 y_1479)))
(assert (forall ((x_39951 R_281) (y_1479 A_43))
	(step_11 Nil_177 Nil_177 y_1479)))
(declare-fun recognise_11 (Bool_228 R_281 list_156) Bool)
(assert (forall ((x_42010 Bool_228) (x_42011 R_281) (z_1349 A_43) (xs_436 list_156) (x_39952 R_281))
	(=> (and (step_11 x_42011 x_39952 z_1349) (recognise_11 x_42010 x_42011 xs_436)) (recognise_11 x_42010 x_39952 (cons_156 z_1349 xs_436)))))
(assert (forall ((x_42013 Bool_228) (x_39952 R_281))
	(=> (eps_23 x_42013 x_39952) (recognise_11 x_42013 x_39952 nil_178))))
(assert (forall ((x_42020 Bool_228) (x_42015 Bool_228) (x_42016 Bool_228) (x_42017 Bool_228) (p_257 R_281) (q_93 R_281) (s_326 list_156))
	(=> (and true (diseqBool_104 x_42015 x_42020) (recognise_11 x_42015 (Plus_88 p_257 q_93) s_326) (recognise_11 x_42016 p_257 s_326) (recognise_11 x_42017 q_93 s_326) (or_232 x_42020 x_42016 x_42017)) false)))
(check-sat)
